184
0 148 100 72 124 108 145 81 48 82 
46 150 31 67 117 171 63 134 178 43 
116 138 2 144 59 23 77 97 167 133 
44 112 90 27 14 88 94 126 174 24 
115 76 1 183 142 29 162 78 89 47 
114 22 60 69 4 66 175 15 34 169 
28 40 68 157 5 151 118 62 93 39 
172 57 131 9 140 50 160 79 51 98 
156 12 73 166 58 20 130 18 95 26 
136 56 135 122 65 10 149 103 176 38 
181 113 7 21 71 33 8 32 158 101 
70 111 104 182 123 146 105 11 30 137 
83 19 92 17 147 87 127 91 173 132 
165 84 86 42 85 152 110 96 170 41 
35 52 128 153 141 155 25 6 179 121 
74 163 161 107 180 129 64 177 99 120 
143 37 102 3 154 168 164 109 125 45 
36 54 53 159 139 80 49 61 75 13 
119 106 16 55 
